100
32
19
31
28
12
22
28
26
1
27
26
18
12
28
28
12
15
14
7
31
11
27
9
24
12
27
18
32
19
1
23
19
9
22
11
26
6
31
24
32
27
26
32
3
3
22
3
21
23
22
22
24
21
29
24
17
8
18
27
17
15
3
26
22
20
7
4
25
5
20
23
13
22
32
21
17
19
18
31
20
17
19
16
1
3
2
17
12
26
1
22
21
11
11
24
27
17
10
24
30
31